\* column_knapsack_problem *\
Minimize
knapsack: 151 col_24 + 150 col_452 + 151 col_79
Subject To
sensitivity: 221 col_24 + 222 col_452 + 221 col_79 >= 66.4
Bounds
 col_24 <= 1
 col_452 <= 1
 col_79 <= 1
End
